16
5 9
5 13
5 11
5 0
5 3
5 10
9 2
9 11
9 10
9 7
9 0
3 15
3 10
3 6
3 13
3 4
15 1
15 7
15 0
15 13
15 4
2 8
2 12
2 7
2 11
2 4
8 14
8 7
8 6
8 12
8 1
13 12
13 1
13 6
1 11
1 4
1 7
12 14
12 6
12 11
11 14
14 6
14 7
14 10
0 10
0 4
0 6
10 4
